6815.0
[1, 1, 0, 1, 1, 1, 0, 1, 0, 0, 0, 0, 1, 0, 0, 1, 0, 1, 0, 1]
[0, 0, 0, 0, 0, 0, 0, 1, 1, 15, 1, 1, 1, 1, 15, 3, 3, 3, 3, 3, 3, 4, 4, 4, 4, 4, 4, 4, 4, 5, 5, 5, 5, 5, 5, 5, 5, 5, 0, 0, 3, 3, 4, 12, 15, 17, 19, 7, 15, 19, 17, 17, 17, 19, 19, 19, 5, 15, 7, 7, 12, 3, 15, 17, 7, 7, 12, 12, 7, 7, 19, 12, 17, 17, 17, 17, 17, 17, 7, 7]